0 279 
1 288 
2 294 
3 298 
4 299 
5 301 
6 301 
7 302 
8 304 
9 305 
10 307 
11 306 
12 306 
13 305 
14 303 
15 304 
16 303 
17 304 
18 303 
19 302 
20 301 
21 302 
22 300 
23 299 
24 299 
25 298 
26 297 
27 295 
28 294 
29 292 
30 290 
31 291 
32 293 
33 294 
34 295 
35 296 
36 296 
37 295 
38 294 
39 294 
40 293 
41 294 
42 294 
43 293 
44 292 
45 292 
46 292 
47 291 
48 290 
49 290 
50 290 
51 291 
52 291 
53 291 
54 290 
55 289 
56 287 
57 285 
58 284 
59 283 
60 283 
61 282 
62 280 
63 280 
64 279 
65 279 
66 279 
67 279 
68 278 
69 277 
70 277 
71 278 
72 279 
73 278 
74 278 
75 277 
76 276 
77 276 
78 275 
79 274 
80 272 
81 272 
82 277 
83 278 
84 278 
85 279 
86 280 
87 283 
88 287 
89 291 
90 293 
91 294 
92 295 
93 294 
94 294 
95 293 
96 293 
97 293 
98 293 
99 294 
100 293 
101 292 
102 292 
103 291 
104 289 
105 289 
106 288 
107 288 
108 287 
109 286 
110 285 
111 286 
112 285 
113 285 
114 284 
115 283 
116 282 
117 281 
118 281 
119 280 
120 279 
121 278 
122 277 
123 275 
124 273 
125 272 
126 271 
127 271 
128 271 
129 271 
130 271 
131 269 
132 267 
133 270 
134 269 
135 267 
136 266 
137 266 
138 265 
139 264 
140 263 
141 263 
142 262 
143 263 
144 262 
145 260 
146 261 
147 261 
148 260 
149 259 
150 258 
151 257 
152 257 
153 256 
154 258 
155 258 
156 257 
157 256 
158 254 
159 254 
160 254 
161 254 
162 253 
163 252 
164 257 
165 259 
166 258 
167 258 
168 258 
169 262 
170 262 
171 263 
172 263 
173 262 
174 262 
175 261 
176 261 
177 262 
178 263 
179 262 
180 260 
181 258 
182 257 
183 257 
184 260 
185 261 
186 262 
187 264 
188 266 
189 267 
190 269 
191 268 
192 266 
193 264 
194 263 
195 264 
196 263 
197 263 
198 262 
199 262 
200 261 
201 260 
202 258 
203 257 
204 257 
205 256 
206 254 
207 254 
208 256 
209 255 
210 255 
211 254 
212 253 
213 253 
214 252 
215 251 
216 250 
217 250 
218 248 
219 247 
220 246 
221 249 
222 251 
223 254 
224 255 
225 253 
226 252 
227 251 
228 251 
229 250 
230 252 
231 251 
232 250 
233 249 
234 248 
235 248 
236 247 
237 247 
238 247 
239 246 
240 247 
241 247 
242 246 
243 245 
244 244 
245 243 
246 244 
247 243 
248 242 
249 241 
250 240 
251 239 
252 238 
253 244 
254 244 
255 245 
256 245 
257 243 
258 242 
259 241 
260 241 
261 239 
262 238 
263 237 
264 236 
265 236 
266 236 
267 236 
268 236 
269 237 
270 240 
271 241 
272 240 
273 239 
274 240 
275 240 
276 239 
277 238 
278 238 
279 237 
280 237 
281 236 
282 236 
283 235 
284 234 
285 233 
286 231 
287 230 
288 228 
289 227 
290 226 
291 227 
292 228 
293 227 
294 226 
295 225 
296 226 
297 226 
298 226 
299 225 
300 224 
301 225 
302 226 
303 225 
304 224 
305 223 
306 222 
307 221 
308 220 
309 219 
310 217 
311 216 
312 217 
313 217 
314 218 
315 217 
316 216 
317 215 
318 216 
319 217 
320 218 
321 218 
322 217 
323 215 
324 214 
325 213 
326 212 
327 211 
328 209 
329 210 
330 210 
331 212 
332 211 
333 210 
334 209 
335 210 
336 211 
337 211 
338 210 
339 209 
340 208 
341 208 
342 207 
343 205 
344 204 
345 205 
346 203 
347 202 
348 201 
349 199 
350 198 
351 196 
352 197 
353 196 
354 198 
355 196 
356 195 
357 194 
358 195 
359 193 
360 193 
361 192 
362 192 
363 190 
364 188 
365 187 
366 186 
367 184 
368 184 
369 194 
370 201 
371 201 
372 200 
373 200 
374 209 
375 209 
376 210 
377 209 
378 209 
379 209 
380 212 
381 214 
382 214 
383 213 
384 212 
385 212 
386 211 
387 210 
388 209 
389 210 
390 209 
391 209 
392 209 
393 209 
394 209 
395 209 
396 209 
397 208 
398 207 
399 208 
400 208 
401 206 
402 205 
403 204 
404 202 
405 202 
406 202 
407 199 
408 199 
409 198 
410 197 
411 197 
412 198 
413 197 
414 197 
415 195 
416 195 
417 196 
418 195 
419 194 
420 193 
421 192 
422 192 
423 191 
424 190 
425 189 
426 188 
427 187 
428 187 
429 185 
430 186 
431 186 
432 184 
433 183 
434 182 
435 181 
436 181 
437 180 
438 180 
439 179 
440 179 
441 179 
442 179 
443 179 
444 178 
445 177 
446 177 
447 176 
448 176 
449 176 
450 176 
451 175 
452 177 
453 177 
454 176 
455 175 
456 175 
457 175 
458 174 
459 173 
460 172 
461 170 
462 170 
463 168 
464 167 
465 168 
466 169 
467 168 
468 167 
469 166 
470 165 
471 164 
472 164 
473 162 
474 161 
475 164 
476 165 
477 166 
478 166 
479 166 
480 165 
481 166 
482 165 
483 165 
484 165 
485 165 
486 166 
487 167 
488 167 
489 167 
490 165 
491 163 
492 161 
493 159 
494 158 
495 160 
496 160 
497 159 
498 159 
499 159 
500 159 
501 159 
502 158 
503 156 
504 155 
505 154 
506 153 
507 151 
508 151 
509 150 
510 150 
511 150 
512 150 
513 148 
514 147 
515 146 
516 144 
517 145 
518 144 
519 144 
520 145 
521 144 
522 142 
523 141 
524 143 
525 142 
526 141 
527 139 
528 139 
529 138 
530 137 
531 139 
532 139 
533 138 
534 138 
535 138 
536 141 
537 141 
538 140 
539 141 
540 142 
541 141 
542 140 
543 139 
544 138 
545 138 
546 137 
547 136 
548 136 
549 135 
550 135 
551 134 
552 136 
553 135 
554 135 
555 134 
556 133 
557 132 
558 132 
559 131 
560 129 
561 129 
562 129 
563 129 
564 128 
565 126 
566 124 
567 123 
568 122 
569 122 
570 120 
571 119 
572 119 
573 119 
574 118 
575 117 
576 116 
577 114 
578 112 
579 111 
580 109 
581 107 
582 109 
583 110 
584 111 
585 112 
586 111 
587 112 
588 110 
589 110 
590 108 
591 106 
592 106 
593 105 
594 104 
595 102 
596 103 
597 102 
598 100 
599 100 
600 101 
601 100 
602 98 
603 98 
604 98 
605 97 
606 95 
607 95 
608 94 
609 94 
610 92 
611 91 
612 89 
613 87 
614 85 
615 86 
616 87 
617 88 
618 87 
619 86 
620 85 
621 82 
622 81 
623 78 
624 79 
625 81 
626 80 
627 78 
628 78 
629 77 
630 76 
631 75 
632 72 
633 71 
634 70 
635 70 
636 69 
637 68 
638 68 
639 68 
640 67 
641 67 
642 66 
643 64 
644 65 
645 63 
646 62 
647 61 
648 59 
649 56 
650 54 
651 54 
652 52 
653 53 
654 53 
655 53 
656 51 
657 51 
658 50 
659 50 
660 49 
661 47 
662 46 
663 43 
664 40 
665 39 
666 38 
667 38 
668 36 
669 35 
670 34 
671 33 
672 33 
673 33 
674 33 
675 33 
676 35 
677 33 
678 32 
679 32 
680 31 
681 31 
682 31 
683 32 
684 31 
685 30 
686 28 
687 28 
688 26 
689 25 
690 24 
691 23 
692 21 
693 20 
694 21 
695 22 
696 21 
697 20 
698 20 
699 19 
700 19 
701 19 
702 21 
703 20 
704 19 
705 19 
706 17 
707 17 
708 16 
709 15 
710 16 
711 15 
712 14 
713 12 
714 10 
715 9 
716 9 
717 8 
718 8 
719 7 
720 5 
721 4 
722 4 
723 3 
724 4 
725 2 
726 0 
727 0 

